13
Properties=species:S:1:pos:R:3 smiles="C[C@@H](C(=O)O)N" name=Alanine-L pbc="F F F"
C       -0.89235729      -0.94558430      -0.00341394
C       -0.11487197       0.29712348       0.33272431
N       -0.80001643       1.51193056      -0.00105249
C        1.21855527       0.20310588      -0.29806192
O        1.71582524       1.16323208      -0.93029207
O        1.98206974      -0.93145751      -0.06748942
H       -1.93939974      -0.88331383       0.38220512
H       -0.93570484      -1.12830187      -1.10258725
H       -0.38378335      -1.80983949       0.47704412
H        0.01842597       0.29839949       1.44233157
H       -1.32988794       1.46123506      -0.90389031
H       -1.53916862       1.65500114       0.73591447
H        3.00031396      -0.89153070      -0.06343217
26
Properties=species:S:1:pos:R:3 smiles="C(C[C@@H](C(=O)O)N)CNC(=N)N" name=Arginine-L pbc="F F F"
N        3.86131204      -0.91293176      -0.53577845
C        3.19612573       0.12815984      -0.13017462
N        3.91623200       1.36336506      -0.05447537
N        1.76366332       0.14378386      -0.09136462
C        1.11828700      -1.13370293      -0.28048925
C       -0.37640335      -1.07160145      -0.20814079
C       -0.89977915       0.05373768       0.63890263
C       -2.41628249       0.00575607       0.56062101
N       -2.88134685      -1.18570527      -0.13461053
C       -2.96350860       1.16919685      -0.19048433
O       -4.13801819       1.54529972       0.08516559
O       -2.09381359       2.13312458      -0.65851285
H        4.00606601      -1.74254219       0.06273573
H        4.38895742       1.70917981      -0.91503387
H        3.73277529       2.05136610       0.69512911
H        1.33125377       1.06320310      -0.36835077
H        1.46273110      -1.51761706      -1.27035244
H        1.54375616      -1.83526950       0.47173905
H       -0.82755946      -0.99427165      -1.22536078
H       -0.72808488      -2.02006656       0.27073185
H       -0.53945996      -0.08542962       1.66902121
H       -0.60356299       1.05190221       0.26210195
H       -2.83520403       0.03005495       1.59317510
H       -2.76349021      -2.03855243       0.47194580
H       -3.90556946      -1.02112134      -0.31561238
H       -2.34907664       3.11068192      -0.77379747
17
Properties=species:S:1:pos:R:3 smiles="O=C(N)C[C@H](N)C(=O)O" name=Asparagine pbc="F F F"
N        2.60071666       0.24319673       0.00380380
C        1.49201919       0.97035519      -0.53766791
O        1.80195721       1.98878621      -1.22815826
C        0.29147081       0.15185093      -0.89220593
C       -0.49791020      -0.21970304       0.34480805
N       -0.40036268      -1.66074154       0.54808509
C       -1.93127642       0.14734308       0.12569796
O       -2.82230425      -0.75303558       0.10082698
O       -2.18888477       1.39113668      -0.42258412
H        3.01109105       0.52635245       0.90869053
H        3.05959487      -0.49851134      -0.57784800
H        0.60800534      -0.77082197      -1.42501537
H       -0.34183519       0.72166903      -1.58683192
H       -0.10770163       0.30017819       1.24757366
H       -0.14929318      -2.15211250      -0.35120884
H       -1.30535969      -2.03532589       0.91273284
H       -3.11992710       1.64938339      -0.71451583
16
Properties=species:S:1:pos:R:3 smiles="C([C@@H](C(=O)O)N)C(=O)O" name=AsparticAcid-L pbc="F F F"
N       -0.88313943      -0.90246359      -1.51856946
C       -0.34213621      -0.50243621      -0.22171381
C        0.60517045       0.63986931      -0.45323629
C        1.78930213       0.55971798       0.45478708
O        2.58517788       1.53853965       0.45067398
O        1.89254631      -0.44669988       1.42145198
C       -1.51903475      -0.04829048       0.58295834
O       -2.42116797      -0.92226571       0.75824103
O       -1.82699475       1.31239423       0.67536136
H       -0.09156477      -0.95453419      -2.20340995
H       -1.28781179      -1.86063014      -1.37450500
H        0.13409277      -1.36506455       0.28265612
H        0.97859177       0.59600579      -1.50547931
H        0.05171510       1.57974949      -0.31490737
H        2.84506461      -0.78366199       1.57671900
H       -2.50981135       1.55977028       1.38897231
14
Properties=species:S:1:pos:R:3 smiles="C([C@@H](C(=O)O)N)S" name=Cysteine pbc="F F F"
N       -0.58652247       1.37885319      -0.26551095
C        0.15172716       0.35466548       0.40801638
C       -0.69088390      -0.87002921       0.63817853
S       -2.42288756      -0.47868682       0.23102150
C        1.33219222      -0.00840246      -0.40717203
O        1.91694449       0.85869136      -1.10948931
O        1.85355709      -1.29704543      -0.46586315
H       -0.02694854       2.09099804      -0.75161013
H       -1.43294251       1.70975916       0.21569481
H        0.52163510       0.73437483       1.39012668
H       -0.67584834      -1.20990570       1.69860082
H       -0.37401831      -1.73600175       0.00465558
H       -2.43315460      -0.12100864      -1.13585484
H        2.86715018      -1.40626205      -0.45079388
19
Properties=species:S:1:pos:R:3 smiles="C(CC(=O)O)[C@@H](C(=O)O)N" name=GlutamicAcid-L pbc="F F F"
N       -1.71450686      -1.58488913       0.06916759
C       -1.26161929      -0.26716878       0.43242892
C        0.22311400      -0.18862784       0.59937619
C        0.97733482       0.00027916      -0.68612839
C        2.43110767      -0.05790996      -0.33173442
O        3.16777468      -1.02490964      -0.69249891
O        2.88314854       0.63580497       0.79351633
C       -1.80816914       0.68365190      -0.55511178
O       -3.03059432       0.53039439      -0.85750388
O       -1.28705857       1.94805577      -0.74425245
H       -0.96868013      -2.29707430       0.19420935
H       -2.54427214      -1.85505444       0.66074844
H       -1.71496233       0.00090184       1.41862587
H        0.56737136      -1.15149301       1.03692354
H        0.54564546       0.61150815       1.29356387
H        0.73334863      -0.80937599      -1.40697863
H        0.81548153       1.00616498      -1.13556661
H        3.82399493       1.02482309       0.72145039
H       -1.83845882       2.79491881      -0.81023543
20
Properties=species:S:1:pos:R:3 smiles=O=C(N)CCC(N)C(=O)O name=Glutamine pbc="F F F"
N        3.58934360      -0.31189976      -0.47389464
C        2.42516991      -0.02014969       0.30778628
O        2.59831513       0.71337194       1.32876270
C        1.17111535       0.28043255      -0.45247528
C       -0.05756827       0.10297614       0.43371985
C       -1.25199749      -0.36886570      -0.32360580
N       -1.59598549      -1.72456166       0.09966573
C       -2.47207021       0.44757426      -0.09917844
O       -3.54030826      -0.01858114      -0.60036350
O       -2.46864849       1.77518195       0.26678618
H        4.09007957       0.52335320      -0.86401379
H        3.50825790      -1.16155764      -1.08540516
H        1.14758509      -0.38251965      -1.33431619
H        1.28235773       1.34553536      -0.76260438
H        0.24431526      -0.65599419       1.20013400
H       -0.21371044       1.03820778       1.00373636
H       -1.09994027      -0.39104025      -1.43031436
H       -1.83427521      -1.67169361       1.12573975
H       -2.50370183      -1.97213420      -0.37506746
H       -3.01833356       2.45236431      -0.26630393
10
Properties=species:S:1:pos:R:3 smiles=C(C(=O)O)N name=Glycine pbc="F F F"
N       -1.37776863       0.54832454       0.07712863
C       -0.51066679      -0.54342094      -0.06784814
C        0.91487278      -0.21803412       0.25372310
O        1.55430130      -0.80065023       1.17013736
O        1.60626465       0.79070739      -0.42389897
H       -1.47106186       1.23224772      -0.66735128
H       -1.84881264       0.71455281       0.96134671
H       -0.59196629      -0.93879239      -1.11141637
H       -0.80703507      -1.35581070       0.60809654
H        2.53187256       0.57087593      -0.79991758
20
Properties=species:S:1:pos:R:3 smiles="O=C([C@H](CC1=CNC=N1)N)O" name=Histidine pbc="F F F"
N       -2.38618391      -0.02971336       1.05956883
C       -1.29191216       0.04087185       0.09557448
C       -0.36095907      -1.15029726       0.27369159
C        1.05410229      -0.69128690       0.24184722
C        1.52948336       0.38924734       0.96461025
N        2.68915668       0.74418643       0.39326350
C        3.07251486      -0.21571114      -0.47427423
N        2.07612006      -1.12407283      -0.51234080
C       -1.81741372       0.11092011      -1.30173184
O       -3.01859009      -0.26256095      -1.46329259
O       -1.43130698       1.21655905      -2.06623669
H       -2.32755482       0.71432773       1.78413140
H       -2.31859765      -0.94689232       1.55345075
H       -0.70373946       0.94187763       0.36432991
H       -0.56897411      -1.87304965      -0.52746091
H       -0.51513612      -1.63760539       1.26415099
H        1.03107500       0.84919337       1.79713524
H        3.18338466       1.64858217       0.60336447
H        3.95764446      -0.16679737      -1.10041927
H       -1.85311329       1.44222148      -2.94936230
22
Properties=species:S:1:pos:R:3 smiles="CC[C@H](C)[C@@H](C(=O)O)N" name=Isoleucine pbc="F F F"
C       -2.41706419       0.68313306       0.10035187
C       -0.94041065       0.69111063       0.41767750
C       -0.28162577      -0.29593129      -0.52527226
C       -0.69196449      -1.66811485       0.00058739
C        1.21331562      -0.21875907      -0.50051143
N        1.78041734      -1.40178689       0.14368580
C        1.74262824       1.00156872       0.13349866
O        2.83209757       0.88865639       0.77443444
O        1.55974250       2.24412461      -0.48274306
H       -2.64686032       0.10610736      -0.83092563
H       -3.03787933       0.24593076       0.89479165
H       -2.81033448       1.70856755      -0.09199657
H       -0.57943955       1.71972923       0.29068924
H       -0.84258606       0.32035539       1.46705737
H       -0.69516266      -0.18049976      -1.54871261
H       -0.30620290      -1.69353619       1.05061535
H       -1.78507733      -1.78920217       0.03611857
H       -0.18437184      -2.42226682      -0.64471931
H        1.57859410      -0.24379382      -1.55059522
H        1.80839999      -1.16649923       1.17038116
H        2.71525045      -1.58594252      -0.26022601
H        1.98853376       3.05704893      -0.04418688
22
Properties=species:S:1:pos:R:3 smiles="CC(C)C[C@@H](C(=O)O)N" name=Leucine pbc="F F F"
C       -1.83311201      -0.72396977      -1.09610008
C       -1.04395314      -0.25626956       0.11711185
C       -1.97555181       0.48536359       1.04257515
C        0.09759097       0.65633775      -0.26989183
C        1.39001768       0.20372235       0.36711075
N        2.20370653       1.33655382       0.79374766
C        2.18808842      -0.67011087      -0.54013927
O        3.40088770      -0.83319647      -0.20766195
O        1.57541799      -1.61781442      -1.34034353
H       -2.18435528       0.16396278      -1.64421773
H       -2.67924454      -1.32838848      -0.69669087
H       -1.20993228      -1.37772523      -1.73083272
H       -0.68930414      -1.18266352       0.63484128
H       -2.63016229      -0.22312840       1.57034669
H       -2.58214938       1.17263858       0.40429037
H       -1.42399196       1.15063409       1.75020801
H       -0.08225446       1.69452312       0.10728663
H        0.17041908       0.75198630      -1.37253243
H        1.13695876      -0.39115100       1.27215925
H        2.48324459       1.23984903       1.79754407
H        1.59183917       2.17924451       0.70993887
H        2.09584041      -2.43039821      -1.66875018
24
Properties=species:S:1:pos:R:3 smiles="C(CCN)C[C@@H](C(=O)O)N" name=Lysine pbc="F F F"
N        3.71142025       0.13131428       0.35830934
C        2.63367168       0.09694333      -0.55976799
C        1.41251780       0.86147571      -0.17922974
C        0.14726248       0.11870883      -0.58578494
C       -0.61334427      -0.36126342       0.61996329
C       -2.05715976      -0.65344442       0.28702610
N       -2.17257666      -1.85768171      -0.49641351
C       -2.63149338       0.48899207      -0.46581113
O       -3.55026977       0.21341959      -1.29411869
O       -2.70637553       1.74591155       0.12325541
H        4.27768376       0.98337770       0.38932320
H        3.61129912      -0.40312639       1.22672173
H        3.01418123       0.46805345      -1.54453150
H        2.36110634      -0.97252192      -0.73320165
H        1.37389008       1.02266253       0.90674006
H        1.43748916       1.84583414      -0.71181976
H       -0.52338742       0.73157927      -1.20803807
H        0.42987402      -0.78098871      -1.17789993
H       -0.62236627       0.46002805       1.36854913
H       -0.13121138      -1.22923461       1.09375642
H       -2.62216974      -0.74609427       1.23023814
H       -2.27662852      -2.67961139       0.13350802
H       -1.27596447      -2.00652088      -1.02084547
H       -3.22744876       2.52218722      -0.28074530
20
Properties=species:S:1:pos:R:3 smiles="CSCC[C@H](N)C(=O)O" name=Methionine-L pbc="F F F"
C        3.74890418       0.36798024      -0.17426131
S        2.19834868      -0.00918667       0.70164104
C        0.79316901       0.63352245      -0.26054647
C       -0.24355826      -0.43031131      -0.49642731
C       -1.36663481      -0.41068282       0.49136950
N       -2.07758365      -1.67569915       0.43909753
C       -2.36037222       0.65620094       0.24297834
O       -3.36170115       0.65466536       1.02161794
O       -2.52684414       1.29194064      -0.97642939
H        4.22138487       1.28760950       0.24954443
H        4.47999517      -0.46974231      -0.09276975
H        3.56059563       0.57121551      -1.25816444
H        1.14343941       1.00376938      -1.25133226
H        0.39556390       1.50611650       0.29999382
H        0.26841232      -1.41979757      -0.39212320
H       -0.66247062      -0.38722327      -1.52844900
H       -0.96226535      -0.24330269       1.50413800
H       -1.65887337      -2.38237875       1.07052747
H       -2.12881734      -1.99299033      -0.54611997
H       -3.46069228       1.44829434      -1.34549703
23
Properties=species:S:1:pos:R:3 smiles="c1ccc(cc1)C[C@@H](C(=O)O)N" name=Phenylalanine-L pbc="F F F"
N       -2.62185350       0.02003455       1.25005882
C       -1.45971718       0.14538226       0.45366380
C       -0.85939880      -1.14943466      -0.01593007
C        0.58087636      -0.92600426      -0.35421016
C        0.98204464       0.13010632      -1.15901218
C        2.20840995       0.75334138      -1.00270221
C        3.05397874       0.26723543      -0.03537289
C        2.84626734      -1.01315087       0.42387939
C        1.60017911      -1.61265105       0.29096218
C       -1.80559952       1.04873734      -0.68974024
O       -2.57447899       0.60183967      -1.58186960
O       -1.98883724       2.39065697      -0.34341278
H       -3.11328192      -0.87237822       1.25427436
H       -2.71622867       0.63137230       2.06212392
H       -0.66927969       0.66554155       1.05118333
H       -1.40480078      -1.61970953      -0.84647590
H       -0.88621483      -1.85314784       0.84113578
H        0.27360914       0.50759329      -1.88783555
H        2.34240058       1.80076908      -1.27843341
H        3.82640653       0.89560198       0.40312622
H        3.52380753      -1.37958207       1.18778334
H        1.34891019      -2.48132251       0.88724350
H       -2.48719899       3.04916891      -0.91043964
17
Properties=species:S:1:pos:R:3 smiles="C1C[C@H](NC1)C(=O)O" name=Proline-L pbc="F F F"
O        2.51799897      -0.67948093       1.46380975
C        1.91502965       0.01706778       0.59143469
O        2.75087009       0.54741531      -0.39681729
C        0.49346278      -0.28183401       0.36826919
C        0.02365273       0.10232605      -1.03126703
C       -1.46644305      -0.17478813      -0.85554141
C       -1.69827455       0.33796460       0.54262585
N       -0.40742789       0.50991698       1.16466480
H        3.63436627       0.10685508      -0.65968834
H        0.23137968      -1.34943862       0.48412105
H        0.15310778       1.18736485      -1.18948418
H        0.47665116      -0.52045862      -1.81357853
H       -1.60859098      -1.28287705      -0.81833805
H       -2.08215351       0.31842982      -1.61881632
H       -2.27257764       1.28439405       0.45706527
H       -2.27807032      -0.39605939       1.14230599
H       -0.38298116       0.27320224       2.16923455
14
Properties=species:S:1:pos:R:3 smiles="C([C@@H](C(=O)O)N)O" name=Serine-L pbc="F F F"
N       -0.68335812       1.37547724      -0.30096009
C        0.01948580       0.34316678       0.41484469
C       -0.79620101      -0.93546769       0.50932137
O       -2.09516268      -0.66528403       0.11910087
C        1.26925572       0.06242207      -0.32788568
O        1.82569051       0.91517863      -1.06520906
O        1.91296317      -1.13533069      -0.09884706
H       -0.20566986       1.67960934      -1.16961498
H       -1.01527283       2.14912280       0.30136534
H        0.19026567       0.69349498       1.44589843
H       -0.77828089      -1.34030067       1.53250829
H       -0.39291127      -1.68357995      -0.20371758
H       -2.12902911      -0.21194820      -0.74863779
H        2.87822491      -1.24656061      -0.40816676
17
Properties=species:S:1:pos:R:3 smiles="C[C@H]([C@@H](C(=O)O)N)O" name=Threonine-L pbc="F F F"
C       -1.59835194       0.16043643       0.36661965
C       -0.76277026       0.16579474      -0.90636739
O       -0.67701550       1.42500176      -1.46241189
C        0.58161812      -0.44003275      -0.58387517
N        0.28030654      -1.68761294       0.11627366
C        1.41279133       0.41912165       0.28466324
O        2.05914090      -0.13940085       1.22284943
O        2.04081607       1.54435197      -0.26053260
H       -2.60919349       0.53403893       0.14274977
H       -1.15912397       0.82524744       1.12856036
H       -1.68325687      -0.89609390       0.70533943
H       -1.26568153      -0.52861973      -1.60524546
H       -1.60637061       1.76310372      -1.54192159
H        1.10119869      -0.65647591      -1.55046933
H       -0.04336074      -2.43517209      -0.51597797
H        1.01155497      -1.95497885       0.79174158
H        2.91769830       1.90129039       0.12418702
27
Properties=species:S:1:pos:R:3 smiles="c1[nH]c2ccccc2c1C[C@H](N)C(=O)O" name=Tryptophan pbc="F F F"
N        2.30182773       1.69984208      -0.52359722
C        1.89546538       0.49333373       0.19537762
C        1.46273841      -0.52198833      -0.82026960
C        0.05684268      -0.94458424      -0.69441502
C       -0.43987467      -2.16526668      -1.13102262
N       -1.70270919      -2.26912702      -0.65030921
C       -2.05217627      -1.12598805      -0.02052415
C       -3.27037370      -0.71591095       0.50604634
C       -3.46482077       0.65445799       0.60207076
C       -2.51077719       1.56964251       0.19895803
C       -1.21504020       1.11837386      -0.01250000
C       -1.00351612      -0.22653333      -0.17370025
C        3.13253622       0.06239147       0.92327667
O        3.30118007      -1.09603552       1.35383157
O        3.80221408       1.08947507       1.59530569
H        1.72055724       1.87980902      -1.35897520
H        2.43203553       2.51205964       0.10297650
H        1.14465188       0.69936334       0.97411785
H        1.71352336      -0.20859572      -1.86407037
H        2.08361704      -1.43617597      -0.63870406
H       -0.07274755      -2.80068546      -1.93564473
H       -2.29488704      -3.13123293      -0.62864544
H       -3.77158274      -1.42418525       1.16621686
H       -4.39221033       0.98951985       1.02797627
H       -2.82282867       2.55859757      -0.13849336
H       -0.47849702       1.79825490      -0.40459562
H        4.44485185       0.94118842       2.34931267
24
Properties=species:S:1:pos:R:3 smiles="N[C@@H](Cc1ccc(O)cc1)C(O)=O" name=Tyrosine pbc="F F F"
N       -2.77191966      -0.71426848      -0.96267306
C       -1.95694138      -0.12883680       0.07172651
C       -0.71050884       0.47435995      -0.54297873
C        0.51051341      -0.18443249       0.01689021
C        1.32166260       0.46033836       0.94250329
C        2.69834258       0.27920835       0.96260935
C        3.27311976      -0.71554742       0.18865261
O        4.58352289      -0.58394973      -0.27600882
C        2.42053894      -1.57922236      -0.47525411
C        1.05809118      -1.32279219      -0.56172739
C       -2.74649120       1.00615271       0.64530833
O       -3.72109832       0.69300467       1.38919919
O       -2.89762139       2.13831705      -0.13196988
H       -2.92555185      -1.73109128      -0.85562883
H       -3.61605689      -0.16587952      -1.19659566
H       -1.70414688      -0.84621520       0.86817565
H       -0.72814028       0.31302160      -1.65041431
H       -0.66829565       1.58313913      -0.41680649
H        0.87449517       1.26181398       1.53052580
H        3.35343786       1.05079906       1.37085032
H        4.85361180       0.19310962      -0.85265006
H        2.84686111      -2.28694281      -1.17377835
H        0.40200313      -1.88214057      -1.22623246
H       -3.74942806       2.68805436      -0.18453994
19
Properties=species:S:1:pos:R:3 smiles="CC(C)[C@@H](C(=O)O)N" name=Valine-L pbc="F F F"
C       -1.34480935      -1.31514648       0.58052476
C       -0.58228779      -0.34965056      -0.30844905
C       -1.58486148       0.61844520      -0.91700473
C        0.48398137       0.37076446       0.48646793
N        0.67921753       1.66273382      -0.12694947
C        1.75958960      -0.39535571       0.45419806
O        1.69870253      -1.62352355       0.70873963
O        2.84446153       0.06785490      -0.29660778
H       -0.64396758      -2.07880140       0.98236914
H       -1.85603400      -0.75891668       1.38756552
H       -2.10300047      -1.81111716      -0.06871358
H       -0.06512446      -0.92142359      -1.10177156
H       -2.62343709       0.33629305      -0.63931096
H       -1.38331547       1.66619306      -0.58277944
H       -1.54157604       0.53067633      -2.02989942
H        0.16738064       0.51048933       1.54702643
H        0.98176769       2.34876142       0.60302290
H        1.40393468       1.56929072      -0.88515976
H        3.70937815      -0.42756716      -0.16637310
