36
Properties=species:S:1:pos:R:3 name=TL SMILES="[H]N[C@@H]([C@@H](C)O)C(=O)N[C@@H](CC(C)C)C(O)=O" h5_key=0 pbc="F F F"
H        2.02335855      -3.27908579      -1.31188992
N        2.78596026      -2.86286646      -1.84233499
C        2.81110879      -1.43692323      -1.54826745
H        2.10621227      -0.85302174      -2.14639105
C        2.43808482      -1.23905509      -0.08101934
H        3.22518319      -1.70138286       0.52399782
C        2.25244317       0.19931182       0.30404094
O        1.22456902      -1.98162270       0.09294516
C        4.19249296      -0.85071473      -1.79491130
O        4.40561747       0.35133740      -1.80717259
N        5.15461469      -1.79321592      -1.98489169
C        6.55732651      -1.45127780      -1.93452318
H        6.57853897      -0.36306952      -1.83292446
C        7.28129437      -2.07090517      -0.75009224
C        7.07221973      -3.56404957      -0.55083380
C        7.48456701      -4.38637739      -1.75660392
C        7.82570688      -4.01482810       0.68513796
C        7.26673802      -1.72870645      -3.24920520
O        6.45100556      -1.99406798      -4.28852282
O        8.46142471      -1.68417582      -3.37049341
H        2.59250556      -3.02403469      -2.82588215
H        1.40253185       0.61293872      -0.23256006
H        3.13235194       0.78443070       0.05670711
H        2.06185736       0.27985815       1.37186818
H        0.95055088      -1.88576295       1.02129061
H        4.82771141      -2.73905839      -1.78629795
H        6.96618201      -1.54568544       0.15081692
H        8.34238851      -1.86826206      -0.89239292
H        6.00804063      -3.73986699      -0.36360004
H        8.52623671      -4.20020946      -2.01018390
H        6.89406981      -4.16099951      -2.64170390
H        7.36641713      -5.44741303      -1.55039256
H        8.89641943      -3.87579886       0.54635714
H        7.64984511      -5.06827443       0.88746968
H        7.52617670      -3.44614980       1.56251624
H        5.53774797      -1.97351489      -3.91885691
30
Properties=species:S:1:pos:R:3 name=HA SMILES="[H]N[C@@H](CC1=CNC=N1)C(=O)N[C@@H](C)C(O)=O" h5_key=1 pbc="F F F"
H        0.58990656       0.61511856       0.31726916
N        1.45315951       0.86037524      -0.17412434
C        2.18303306       1.84661737       0.60878556
H        1.87054647       2.87663119       0.41410077
C        1.99280763       1.58166304       2.10076142
C        0.60163824       1.78739274       2.54639895
C        0.10999068       2.69321357       3.43763055
N       -1.24116772       2.47543040       3.47657987
C       -1.51811225       1.46567217       2.61990264
N       -0.42705616       1.02807014       2.04277822
C        3.67506504       1.80148927       0.32835543
O        4.44740750       2.62042003       0.80060828
N        4.05169940       0.76736382      -0.47211217
C        5.44148927       0.39387880      -0.60516092
H        5.99535694       1.18298954      -0.08920661
C        5.74638029      -0.94621933       0.01996184
C        5.90663920       0.44550674      -2.05014091
O        5.07789500       1.10165060      -2.88473628
O        6.94249884      -0.03678002      -2.42342172
H        1.18527964       1.24458771      -1.07547773
H        2.66965108       2.23265304       2.64614123
H        2.28795791       0.54918555       2.29782620
H        0.58403185       3.44740953       4.03098906
H       -1.90523821       2.97094923       4.05105705
H       -2.51153927       1.09501947       2.46128596
H        3.30141677       0.08408219      -0.60223915
H        5.12017641      -1.72264359      -0.41268668
H        5.57288048      -0.90983330       1.09022684
H        6.78186990      -1.20438114      -0.17253481
H        4.30133594       1.35858743      -2.33341769
41
Properties=species:S:1:pos:R:3 name=QY SMILES="[H]N[C@@H](CCC(N)=O)C(=O)N[C@@H](CC1=CC=C(O)C=C1)C(O)=O" h5_key=2 pbc="F F F"
H        4.30590523      -2.95696284      -5.53533596
N        4.47590334      -2.02658905      -5.16918366
C        3.83682127      -1.84388564      -3.87466476
H        2.77119036      -1.60484692      -3.93573504
C        4.03137586      -3.08487551      -3.02212821
C        3.26918782      -4.30128947      -3.48607374
C        3.72774639      -5.53814680      -2.74959395
N        2.85904246      -6.57422395      -2.78051979
O        4.81329492      -5.61390785      -2.19715021
C        4.47390480      -0.69140307      -3.11287861
O        3.90241547      -0.14010186      -2.17913943
N        5.72349141      -0.40360431      -3.51013368
C        6.55298122       0.49346307      -2.76340927
H        5.88828352       1.27271816      -2.37805835
C        7.22343572      -0.16857272      -1.55112701
C        7.90968103      -1.44558969      -1.89306091
C        7.26309367      -2.65964934      -1.70891913
C        7.83317305      -3.85559948      -2.08722420
C        9.09448031      -3.85081899      -2.65334042
O        9.63181331      -5.05194528      -3.01535073
C        9.76672228      -2.65485173      -2.83275467
C        9.17605865      -1.46409604      -2.45847763
C        7.56150505       1.18919357      -3.63138450
O        7.21841605       1.19580830      -4.93831996
O        8.56837630       1.71072390      -3.21885984
H        4.12467739      -1.36266372      -5.85244192
H        3.74323172      -2.84478798      -2.00091962
H        5.08900174      -3.33408303      -3.00846146
H        3.44029389      -4.49506872      -4.54717515
H        2.19468504      -4.16276428      -3.36710102
H        1.93461045      -6.48744972      -3.16764245
H        3.11331458      -7.42520318      -2.30127841
H        6.09250458      -0.98212544      -4.25859787
H        6.43860484      -0.35204721      -0.82151876
H        7.91687439       0.55489484      -1.12914007
H        6.28423003      -2.67241417      -1.25830043
H        7.30004770      -4.78429109      -1.95777079
H       10.52126230      -4.89567623      -3.37753044
H       10.75634425      -2.65580720      -3.26569700
H        9.70373206      -0.53564981      -2.61131530
H        7.93697201       1.69534225      -5.38508016
28
Properties=species:S:1:pos:R:3 name=CT SMILES="[H]N[C@@H](CS)C(=O)N[C@@H]([C@@H](C)O)C(O)=O" h5_key=3 pbc="F F F"
H        2.59772503       1.29924681      -3.34551193
N        3.38531183       1.64912274      -2.80171821
C        3.24628706       1.20298054      -1.43288508
H        2.51700866       1.76693403      -0.84262749
C        2.84305994      -0.25995940      -1.39945649
S        1.26728567      -0.61919391      -2.24277760
C        4.54966586       1.32110508      -0.66187962
O        4.57477697       1.29572635       0.56419134
N        5.64834467       1.39889460      -1.43121394
C        6.93382677       1.65277784      -0.86231966
H        6.83867170       2.41271920      -0.07969535
C        7.49964915       0.41257446      -0.17142438
H        6.76149790       0.11460259       0.57211616
C        7.81500312      -0.71005598      -1.11267193
O        8.68235202       0.88278535       0.52000984
C        7.84085810       2.20082639      -1.94803948
O        9.12299106       2.31508860      -1.59977898
O        7.43009029       2.51116165      -3.03900717
H        3.36703943       2.66283674      -2.85995172
H        2.80868643      -0.60702475      -0.37225915
H        3.57942936      -0.84935081      -1.94303411
H        0.49472462       0.07516289      -1.38884336
H        5.52713934       1.56052794      -2.43004181
H        8.57617312      -0.41808665      -1.83312153
H        6.91858004      -0.99580313      -1.65641857
H        8.16379647      -1.58447126      -0.56778418
H        9.20686337       0.10753556       0.78860889
H        9.23206202       1.88213653      -0.70336449
34
Properties=species:S:1:pos:R:3 name=SF SMILES="[H]N[C@@H](CO)C(=O)N[C@@H](CC1=CC=CC=C1)C(O)=O" h5_key=4 pbc="F F F"
H        6.11333125      -5.35639976       4.11552799
N        6.58683791      -4.53134149       3.75450578
C        7.97567074      -4.86892981       3.50259642
H        8.60368372      -4.86459829       4.39814099
C        8.05691957      -6.25122224       2.90050063
O        7.51567314      -7.14758910       3.86232262
C        8.61153117      -3.88650808       2.54856380
O        9.84782688      -3.81225108       2.44549113
N        7.74976163      -3.15697992       1.84877897
C        8.05739201      -1.91228174       1.16599870
H        7.11454271      -1.54889584       0.76945434
C        8.62271493      -0.86540854       2.14332014
C        7.79094444      -0.77690204       3.37536215
C        6.55831723      -0.14174294       3.35642116
C        5.74417077      -0.14512387       4.47143398
C        6.15205547      -0.78556959       5.62693404
C        7.38249942      -1.41341184       5.66145291
C        8.19464595      -1.40805334       4.54261882
C        8.97825099      -2.03708440      -0.04300819
O       10.06690240      -2.77758617       0.11201234
O        8.73008805      -1.42771402      -1.05626804
H        6.51880508      -3.80001222       4.45862484
H        9.09824447      -6.47611136       2.67536969
H        7.47319696      -6.27036700       1.97857454
H        7.44180706      -8.02675614       3.45443466
H        6.78353014      -3.33651009       2.12858354
H        8.65379308       0.08445996       1.61327110
H        9.64437178      -1.13375470       2.40073008
H        6.23342775       0.35966673       2.45735798
H        4.79064548       0.35665491       4.44100432
H        5.51814023      -0.78551976       6.49852871
H        7.71569958      -1.89976228       6.56442788
H        9.15514282      -1.89971595       4.56937229
H       10.09543518      -3.18267800       1.04915971
23
Properties=species:S:1:pos:R:3 name=DG SMILES="[H]N[C@@H](CC(O)=O)C(=O)NCC(O)=O" h5_key=5 pbc="F F F"
H        1.59420603      -0.59909828      -0.13822704
N        1.81901956       0.17470600       0.48510108
C        1.83765721      -0.30741793       1.85643683
H        2.05888753       0.54825148       2.49732062
C        0.44689763      -0.79915211       2.22084413
C        0.26189694      -0.94729451       3.68979997
O        0.05215269      -2.24540484       4.04490678
O        0.31833408      -0.05546197       4.49638509
C        2.98725017      -1.28473228       2.06984190
O        4.10347732      -0.99722019       1.65047900
N        2.75194045      -2.45755520       2.69448232
C        3.85407477      -3.35822211       2.90231940
C        3.47191158      -4.67231741       3.48876901
O        2.17179669      -4.72769893       3.86550966
O        4.23880226      -5.58844987       3.63063278
H        2.77256958       0.44546055       0.24786616
H        0.20914630      -1.72547753       1.70337865
H       -0.24583464      -0.03074014       1.88420440
H       -0.02347747      -2.24462055       5.02552462
H        1.86092539      -2.69222195       3.11338721
H        4.60498265      -2.91324155       3.55717522
H        4.36634311      -3.54417318       1.96051168
H        2.04294015      -5.62931750       4.23525052
30
Properties=species:S:1:pos:R:3 name=FG SMILES="[H]N[C@@H](CC1=CC=CC=C1)C(=O)NCC(O)=O" h5_key=6 pbc="F F F"
H        1.01848936       0.14296881      -0.61488266
N        1.88531224      -0.08853033      -0.13537946
C        2.45329627      -1.30435372      -0.69751193
H        2.03495581      -2.21744715      -0.26625084
C        2.21257320      -1.35073883      -2.20668482
C        0.76112282      -1.39467038      -2.53912901
C        0.02991487      -2.55701973      -2.33746987
C       -1.32475966      -2.59222506      -2.59599593
C       -1.97320405      -1.46222957      -3.06028424
C       -1.25697753      -0.30115816      -3.26899103
C        0.10129952      -0.26970406      -3.00937987
C        3.95059140      -1.38596783      -0.47311184
O        4.58435511      -2.39684381      -0.72331348
N        4.50702903      -0.23709808       0.00163348
C        5.93324254      -0.05864255       0.01867634
C        6.51521052       0.15687974       1.39415696
O        5.67608638      -0.12082411       2.41164651
O        7.64299618       0.52849790       1.57187980
H        1.64833948      -0.21640695       0.84408575
H        2.73008355      -2.22686562      -2.58983935
H        2.67193858      -0.47051192      -2.65635135
H        0.53177237      -3.44310007      -1.98004791
H       -1.87696003      -3.50482118      -2.44008163
H       -3.03115835      -1.49065206      -3.26400801
H       -1.75313945       0.58160347      -3.63827630
H        0.66053504       0.63653221      -3.18581465
H        3.86454755       0.55469285      -0.00331315
H        6.24244768       0.77186706      -0.60990264
H        6.37094415      -0.97266812      -0.38282246
H        4.82481543      -0.38956275       1.99516357
30
Properties=species:S:1:pos:R:3 name=AM SMILES="[H]N[C@@H](C)C(=O)N[C@@H](CCSC)C(O)=O" h5_key=7 pbc="F F F"
H        7.45780208      -5.76025459       1.39827807
N        7.17310354      -4.97563168       0.82132780
C        8.22929720      -3.97618391       0.74946959
H        8.21388600      -3.26983943       1.58367553
C        9.58154751      -4.65133657       0.71805218
C        8.09400378      -3.11511186      -0.49455652
O        8.72398586      -2.07064630      -0.62501685
N        7.26893808      -3.60830580      -1.43078745
C        7.05227392      -2.91463840      -2.66472324
H        7.00548830      -1.84491536      -2.45505325
C        8.20894370      -3.15517223      -3.64508527
C        8.22133442      -2.22042170      -4.82737524
S        9.64445856      -2.60498752      -5.89424526
C        9.38464032      -1.31606020      -7.13483511
C        5.74135762      -3.37594230      -3.22281186
O        5.26900637      -2.53856799      -4.16771432
O        5.17223854      -4.38920706      -2.89579080
H        6.32671358      -4.59100303       1.22942389
H        9.61473788      -5.37838433      -0.09058586
H        9.77519867      -5.16407334       1.65694181
H       10.35843667      -3.91155205       0.55803145
H        6.76980993      -4.47058380      -1.22893100
H        8.18251402      -4.19481998      -3.97106488
H        9.11624906      -3.00893444      -3.06208175
H        8.30922122      -1.18974659      -4.48462614
H        7.31126390      -2.30936463      -5.41494537
H        8.42570761      -1.43932568      -7.62940268
H       10.17564544      -1.41776101      -7.86993993
H        9.44572709      -0.32918885      -6.68597239
H        4.43646914      -2.94923938      -4.49105512
28
Properties=species:S:1:pos:R:3 name=CP SMILES="[H]N[C@@H](CS)C(=O)N1CCC[C@H]1C(O)=O" h5_key=8 pbc="F F F"
H        5.37058688       1.79718912       1.37306872
N        5.09930126       0.98311293       1.92402078
C        4.49382172       0.02029357       1.03070827
H        3.49960903       0.30828445       0.67438409
C        5.36012686      -0.18098499      -0.20280985
S        5.65860994       1.35295004      -1.14399177
C        4.23747947      -1.34163672       1.65880680
O        3.26788183      -1.99228107       1.29506458
N        5.07214862      -1.81093119       2.63782770
C        6.47454917      -1.41656349       2.85874240
C        7.19923935      -2.74401395       2.88156885
C        6.21910504      -3.64783857       3.60303140
C        4.85807768      -3.20227323       3.06461735
H        4.53905629      -3.79216744       2.20808948
C        3.78963699      -3.35017794       4.11953251
O        3.39779547      -2.19608824       4.69562717
O        3.36828782      -4.41979779       4.46674440
H        4.42642902       1.30224326       2.61453104
H        4.91281335      -0.93080653      -0.84734871
H        6.35601444      -0.51814417       0.07526858
H        4.37977731       1.52723620      -1.52192303
H        6.56571025      -0.90528060       3.81654909
H        6.80636643      -0.72667743       2.09914255
H        7.35639886      -3.09574650       1.86270277
H        8.16445486      -2.68287648       3.37519279
H        6.37893414      -4.70661268       3.43579182
H        6.26816677      -3.47007615       4.67614816
H        3.85872116      -1.48153440       4.19821205
51
Properties=species:S:1:pos:R:3 name=WW SMILES="[H]N[C@@H](CC1=CNC2=C1C=CC=C2)C(=O)N[C@@H](CC1=CNC2=C1C=CC=C2)C(O)=O" h5_key=9 pbc="F F F"
H        2.69739295      -0.95909945       6.14363276
N        2.19899707      -0.53323158       5.36711231
C        3.04115755      -0.51508519       4.18664597
H        3.62410240      -1.43520769       4.14878716
C        2.18529723      -0.44303681       2.90964336
C        1.67984493      -1.74768817       2.42732039
C        2.02219295      -2.31563150       1.23562773
N        1.36765199      -3.51080631       1.07979409
C        0.57966462      -3.73569877       2.17414048
C        0.75725354      -2.64170462       3.04971541
C        0.05838355      -2.62802886       4.25316704
C       -0.78738401      -3.67368585       4.54270155
C       -0.94901133      -4.74314756       3.66081111
C       -0.26611924      -4.78951853       2.46641902
C        3.97766388       0.67920346       4.20419818
O        3.68045411       1.71820358       4.78532445
N        5.11988637       0.54177545       3.50148801
C        6.06494185       1.61729510       3.40212096
H        5.49750400       2.54215206       3.50450193
C        7.10462617       1.59044822       4.54052447
C        7.85089972       0.31810774       4.62307779
C        7.54582608      -0.73778940       5.43025867
N        8.42837073      -1.76341721       5.20975384
C        9.32952362      -1.38490864       4.25330347
C        8.98962062      -0.07278321       3.85768008
C        9.76494177       0.55581499       2.88774706
C       10.83346305      -0.12179752       2.34782627
C       11.14904108      -1.41905883       2.75328850
C       10.40201242      -2.06733983       3.71066949
C        6.76071252       1.66643532       2.07798953
O        6.51217733       0.59006169       1.30100051
O        7.50754994       2.55560229       1.75280906
H        2.05315311       0.44329076       5.63154020
H        2.77266234       0.01151124       2.11272775
H        1.36284306       0.24163405       3.12134574
H        2.67791837      -1.94852508       0.47020038
H        1.43118652      -4.10883916       0.27388470
H        0.21990138      -1.81757823       4.94418016
H       -1.33439302      -3.67328941       5.47147798
H       -1.61813222      -5.54753183       3.91873281
H       -0.38992263      -5.61624760       1.78591358
H        5.36346181      -0.35091363       3.09857835
H        6.55120975       1.76987181       5.45955677
H        7.77842619       2.43193719       4.39167069
H        6.76629319      -0.83401683       6.16041676
H        8.44115805      -2.63667924       5.70901897
H        9.52542513       1.55316215       2.55666211
H       11.44207685       0.35708482       1.59844918
H       11.99327663      -1.92205263       2.31130001
H       10.64925391      -3.06819981       4.02535723
H        7.07806213       0.70464706       0.50570596
