6
Properties=species:S:1:pos:R:3 smiles=CO name=Methanol pbc="F F F"
C       -0.35100031      -0.00509788      -0.01805400
O        0.96619289      -0.36697334      -0.25971332
H       -0.59845665       0.06164932       1.05237343
H       -0.98286330      -0.81310571      -0.46232899
H       -0.66307059       0.92889970      -0.50175818
H        1.62919795       0.19462791       0.18948106
9
Properties=species:S:1:pos:R:3 smiles=CCO name=Ethanol pbc="F F F"
C        0.88165321      -0.04478118      -0.01474324
C       -0.58159753      -0.37614510       0.05108011
O       -1.35694986       0.75702494       0.18240420
H        1.26504668       0.17421359       1.01224746
H        1.01649295       0.87054063      -0.60898906
H        1.48536012      -0.89981469      -0.39366191
H       -0.78791391      -0.98893872       0.96478502
H       -0.83504017      -1.00512403      -0.81678084
H       -1.08705149       1.51302455      -0.37634174
8
Properties=species:S:1:pos:R:3 smiles=CC name=Ethane pbc="F F F"
C       -0.74763668       0.04183757       0.01068670
C        0.75095613       0.00096905       0.00085266
H       -1.12975651      -0.63601913       0.81389886
H       -1.18847672       1.02495599       0.19959877
H       -1.19986090      -0.33349184      -0.93794862
H        1.08415333      -0.73652028      -0.77319326
H        1.22654418       0.95782726      -0.26435418
H        1.20407718      -0.31955861       0.95045906
4
Properties=species:S:1:pos:R:3 smiles=C=O name=Formaldehyde pbc="F F F"
C       -0.04342282       0.00110224       0.11068429
O        1.15273309      -0.19726196      -0.03320842
H       -0.72328431      -0.82828142      -0.03923798
H       -0.38602596       1.02444114      -0.03823789
